
Log started (V11.0.0) Fri May 16 06:50:51 2008

Tried aggregator 1 time.
Reduced MIP has 240 rows, 8001 columns, and 16040 nonzeros.
Presolve time =    0.06 sec.
Clique table members: 200.
MIP emphasis: balance optimality and feasibility.
MIP search method: dynamic search.
Parallel mode: none, using 1 thread.
Root relaxation solution time =    0.31 sec.

        Nodes                                         Cuts/
   Node  Left     Objective  IInf  Best Integer     Best Node    ItCnt     Gap

*     0+    0                        10620.0000      114.6459      544   98.92%
*     0+    0                          154.0000      114.6459      544   25.55%
      0     0      115.0189    80      154.0000      Fract: 8      610   25.31%
*     0+    0                          152.0000      115.0189      610   24.33%
      0     0      119.0823    76      152.0000      Cuts: 39     1109   21.66%
*     0+    0                          149.0000      119.0823     1109   20.08%
      0     0      119.3690    81      149.0000      Cuts: 10     1129   19.89%
*     0+    0                          139.0000      119.3690     1129   14.12%
      0     0      119.3690    76      139.0000       Cuts: 4     1138   14.12%
      0     0      119.4903    72      139.0000       Cuts: 7     1155   14.04%
*     0+    0                          138.0000      119.4903     1155   13.41%
      0     0      119.5202    81      138.0000       Cuts: 5     1171   13.39%
      0     0      119.5777    84      138.0000       Cuts: 6     1184   13.35%
*     0+    0                          135.0000      119.5777     1184   11.42%
      0     0      119.6718    84      135.0000     Covers: 2     1199   11.35%
      0     0      119.7776    83      135.0000       Cuts: 5     1213   11.28%
      0     0      119.9556    84      135.0000       Cuts: 3     1226   11.14%
      0     0      120.0485    80      135.0000     Covers: 1     1229   11.08%
*     0+    0                          133.0000      120.0485     1229    9.74%
      0     0      120.0494    81      133.0000     Covers: 2     1232    9.74%
*     0+    0                          130.0000      120.0494     1232    7.65%
      0     0      120.1143    72      130.0000       Cuts: 3     1276    7.60%
      0     0      120.1536    77      130.0000       Cuts: 8     1341    7.57%
      0     0      120.2212    88      130.0000      Cuts: 10     1392    7.52%
      0     0      120.4469    86      130.0000      Cuts: 12     1469    7.35%
      0     0      120.4674    96      130.0000       Cuts: 6     1496    7.33%
*     0+    0                          129.0000      120.4674     1496    6.61%
*     0+    0                          128.0000      120.4674     1496    5.88%
      0     2      121.0000    86      128.0000      120.4674     1496    5.88%
    100    97      121.0000    51      128.0000      121.0000     4270    5.47%
*   200+  169                          127.0000      121.0000    10599    4.72%
    200   170      122.0565    57      127.0000      121.0000    10599    4.72%
    300   224      122.0000    45      127.0000      121.0000    20731    4.72%
*   400+  282                          126.0000      121.0000    26343    3.97%
    400   283      123.1716    44      126.0000      121.0000    26343    3.97%
    500   356      124.4119    35      126.0000      121.0000    29045    3.97%
*   510+  240                          125.0000      124.0317    31437    0.77%

Cover cuts applied:  43
Mixed integer rounding cuts applied:  17
Gomory fractional cuts applied:  3

Solution pool: 14 solutions saved.

MIP - Integer optimal solution:  Objective = 1.2500000000e+002
Solution time =   28.92 sec.  Iterations = 31437  Nodes = 510 (240)


Incumbent solution
Variable Name           Solution Value
Cmax                        125.000000
X_1_16                        1.000000
X_2_36                        1.000000
X_3_35                        1.000000
X_4_14                        1.000000
X_5_31                        1.000000
X_6_6                         1.000000
X_7_16                        1.000000
X_8_16                        1.000000
X_9_6                         1.000000
X_10_11                       1.000000
X_11_34                       1.000000
X_12_31                       1.000000
X_13_36                       1.000000
X_14_3                        1.000000
X_15_37                       1.000000
X_16_12                       1.000000
X_17_6                        1.000000
X_18_26                       1.000000
X_19_14                       1.000000
X_20_31                       1.000000
X_21_12                       1.000000
X_22_23                       1.000000
X_23_6                        1.000000
X_24_25                       1.000000
X_25_6                        1.000000
X_26_35                       1.000000
X_27_28                       1.000000
X_28_31                       1.000000
X_29_35                       1.000000
X_30_4                        1.000000
X_31_35                       1.000000
X_32_20                       1.000000
X_33_35                       1.000000
X_34_16                       1.000000
X_35_14                       1.000000
X_36_5                        1.000000
X_37_9                        1.000000
X_38_34                       1.000000
X_39_32                       1.000000
X_40_33                       1.000000
X_41_12                       1.000000
X_42_6                        1.000000
X_43_7                        1.000000
X_44_26                       1.000000
X_45_24                       1.000000
X_46_11                       1.000000
X_47_1                        1.000000
X_48_6                        1.000000
X_49_35                       1.000000
X_50_12                       1.000000
X_51_35                       1.000000
X_52_7                        1.000000
X_53_12                       1.000000
X_54_7                        1.000000
X_55_31                       1.000000
X_56_2                        1.000000
X_57_6                        1.000000
X_58_26                       1.000000
X_59_28                       1.000000
X_60_34                       1.000000
X_61_35                       1.000000
X_62_16                       1.000000
X_63_34                       1.000000
X_64_20                       1.000000
X_65_34                       1.000000
X_66_6                        1.000000
X_67_15                       1.000000
X_68_21                       1.000000
X_69_16                       1.000000
X_70_34                       1.000000
X_71_23                       1.000000
X_72_34                       1.000000
X_73_34                       1.000000
X_74_33                       1.000000
X_75_26                       1.000000
X_76_20                       1.000000
X_77_35                       1.000000
X_78_2                        1.000000
X_79_35                       1.000000
X_80_39                       1.000000
X_81_37                       1.000000
X_82_31                       1.000000
X_83_4                        1.000000
X_84_33                       1.000000
X_85_27                       1.000000
X_86_9                        1.000000
X_87_14                       1.000000
X_88_35                       1.000000
X_89_35                       1.000000
X_90_35                       1.000000
X_91_13                       1.000000
X_92_16                       1.000000
X_93_35                       1.000000
X_94_4                        1.000000
X_95_12                       1.000000
X_96_31                       1.000000
X_97_4                        1.000000
X_98_18                       1.000000
X_99_31                       1.000000
X_100_14                      1.000000
X_101_21                      1.000000
X_102_29                      1.000000
X_103_33                      1.000000
X_104_39                      1.000000
X_105_14                      1.000000
X_106_31                      1.000000
X_107_16                      1.000000
X_108_2                       1.000000
X_109_16                      1.000000
X_110_23                      1.000000
X_111_33                      1.000000
X_112_20                      1.000000
X_113_35                      1.000000
X_114_7                       1.000000
X_115_34                      1.000000
X_116_23                      1.000000
X_117_12                      1.000000
X_118_35                      1.000000
X_119_35                      1.000000
X_120_31                      1.000000
X_121_14                      1.000000
X_122_15                      1.000000
X_123_10                      1.000000
X_124_33                      1.000000
X_125_8                       1.000000
X_126_37                      1.000000
X_127_36                      1.000000
X_128_17                      1.000000
X_129_35                      1.000000
X_130_35                      1.000000
X_131_31                      1.000000
X_132_24                      1.000000
X_133_34                      1.000000
X_134_23                      1.000000
X_135_31                      1.000000
X_136_12                      1.000000
X_137_4                       1.000000
X_138_7                       1.000000
X_139_19                      1.000000
X_140_31                      1.000000
X_141_33                      1.000000
X_142_12                      1.000000
X_143_31                      1.000000
X_144_36                      1.000000
X_145_34                      1.000000
X_146_14                      1.000000
X_147_12                      1.000000
X_148_35                      1.000000
X_149_37                      1.000000
X_150_6                       1.000000
X_151_25                      1.000000
X_152_16                      1.000000
X_153_4                       1.000000
X_154_12                      1.000000
X_155_12                      1.000000
X_156_16                      1.000000
X_157_36                      1.000000
X_158_37                      1.000000
X_159_37                      1.000000
X_160_40                      1.000000
X_161_35                      1.000000
X_162_35                      1.000000
X_163_16                      1.000000
X_164_34                      1.000000
X_165_22                      1.000000
X_166_1                       1.000000
X_167_28                      1.000000
X_168_35                      1.000000
X_169_34                      1.000000
X_170_21                      1.000000
X_171_37                      1.000000
X_172_35                      1.000000
X_173_16                      1.000000
X_174_16                      1.000000
X_175_14                      1.000000
X_176_13                      1.000000
X_177_28                      1.000000
X_178_37                      1.000000
X_179_6                       1.000000
X_180_26                      1.000000
X_181_38                      1.000000
X_182_28                      1.000000
X_183_31                      1.000000
X_184_16                      1.000000
X_185_6                       1.000000
X_186_33                      1.000000
X_187_16                      1.000000
X_188_5                       1.000000
X_189_30                      1.000000
X_190_31                      1.000000
X_191_6                       1.000000
X_192_4                       1.000000
X_193_37                      1.000000
X_194_19                      1.000000
X_195_16                      1.000000
X_196_34                      1.000000
X_197_12                      1.000000
X_198_40                      1.000000
X_199_28                      1.000000
X_200_6                       1.000000
All other variables in the range 1-8001 are 0.
